Comps = {frontend0, frontend1, backend0, backend1, database0, database1};
mustComps = {frontend0, frontend1};
Flavs = {tiny, medium, large};
Nodes = {n1, n2, n3, n4};
CRes = {CPU, RAM, storage, bwIn, bwOut};
NRes = {ssl, fwall, encr, avail, latency};
Flav = [{medium, large}, {medium, large}, {tiny, medium, large}, {tiny, medium, large}, {large}, {large}];
Uses = array2d(CompFlavs, CompFlavs, [
	0,0,0,0,0,0,0,1,0,0,0,0,
	0,0,0,0,0,0,0,1,0,0,0,0,
	0,0,0,0,1,0,0,0,0,0,0,0,
	0,0,0,0,1,0,0,0,0,0,0,0,
	0,0,0,0,0,0,0,0,0,0,0,0,
	0,0,0,0,0,0,1,0,0,0,0,0,
	0,0,0,0,0,0,1,0,0,0,0,0,
	0,0,0,0,0,0,0,0,0,0,0,0,
	0,0,0,0,0,0,0,0,0,1,0,0,
	0,0,0,0,0,0,0,0,0,1,0,0,
	0,0,0,0,0,0,0,0,0,0,0,0,
	0,0,0,0,0,0,0,0,0,0,0,0,
]);
mayUse = array2d(Comps, CompFlavs, [
	0,0,0,0,0,0,0,0,0,0,0,0,
	0,0,0,0,0,0,0,0,0,0,0,0,
	0,0,1,1,0,1,1,0,0,0,0,0,
	1,1,0,0,0,0,0,0,1,1,0,0,
	0,0,0,0,0,0,0,0,0,0,0,0,
	0,0,0,0,0,0,0,0,0,0,0,0,
]);
MIN_RBOUNDS = 0;
MAX_RBOUNDS = 1000000;

worstBounds = [0, 0, 0, 0, 0, 0, 0, 0, 0, MAX_RBOUNDS];
bestBounds = [MAX_RBOUNDS - i | i in worstBounds];

comReq = array2d(CompFlavs, Res, [
  2, 448, 301, 203, 809, 0, 1, 1, 97, MAX_RBOUNDS,
  2, 359, 228, 814, 474, 0, 1, 1, 95, MAX_RBOUNDS,
  2, 419, 468, 633, 932, 1, 0, 0, 96, MAX_RBOUNDS,
  2, 485, 373, 692, 658, 1, 0, 0, 97, MAX_RBOUNDS,
  2, 455, 204, 310, 851, 1, 1, 0, 97, MAX_RBOUNDS,
  2, 488, 290, 460, 251, 1, 1, 1, 95, MAX_RBOUNDS,
  2, 256, 310, 204, 279, 1, 1, 1, 96, MAX_RBOUNDS,
  2, 323, 241, 517, 387, 1, 1, 0, 95, MAX_RBOUNDS,
  2, 263, 314, 819, 406, 1, 0, 1, 96, MAX_RBOUNDS,
  2, 448, 224, 275, 711, 1, 1, 1, 96, MAX_RBOUNDS,
  4, 368, 202, 567, 599, 1, 1, 1, 97, MAX_RBOUNDS,
  4, 413, 308, 449, 751, 0, 0, 0, 95, MAX_RBOUNDS,
]);

nodeCap = array2d(Nodes0, Res, [bestBounds[r] | r in Res] ++ [
  32, 28902, 747069, 14587, 22376, 1, 1, 1, 99, 0,
  32, 50164, 200241, 10266, 13455, 1, 0, 1, 98, 0,
  16, 104973, 194654, 23399, 11419, 1, 1, 1, 99, 0,
  32, 109205, 790666, 19363, 14762, 0, 1, 1, 98, 0,
]);

cost = array2d(Nodes0, Res, [
  0, 0, 0, 0, 0, 0, 0, 0, 0, 0, % no node
  18, 9, 23, 0, 0, 0, 0, 0, 0, 0,
  13, 9, 19, 0, 0, 0, 0, 0, 0, 0,
  20, 6, 18, 0, 0, 0, 0, 0, 0, 0,
  20, 6, 22, 0, 0, 0, 0, 0, 0, 0,
]);

carb = array2d(Nodes0, Res, [
  0, 0, 0, 0, 0, 0, 0, 0, 0, 0, % no node
  24, 42, 23, 0, 0, 0, 0, 0, 0, 0,
  35, 25, 1, 0, 0, 0, 0, 0, 0, 0,
  29, 1, 3, 0, 0, 0, 0, 0, 0, 0,
  25, 6, 22, 0, 0, 0, 0, 0, 0, 0,
]);

costBudget = 59969;
carbBudget = 46991;

depReq = array4d(Comps, Flavs, Comps, Res, [
  if c1 = frontend0 /\ c2 = backend0 /\ r = N(avail) then
    95
  elseif c1 = frontend0 /\ c2 = backend1 /\ r = N(avail) then
    97
  elseif c1 = frontend1 /\ c2 = backend1 /\ r = N(avail) then
    95
  elseif c1 = frontend1 /\ c2 = backend0 /\ r = N(avail) then
    95
  else
    worstBounds[r]
  endif | c1 in Comps, i in Flavs, c2 in Comps, r in Res]);

linkCap = array3d(Nodes0, Nodes0, Res, [
  if ni = 0 \/ nj = 0 then
    bestBounds[r]
  elseif ni = nj /\ r = N(avail) then
    nodeCap[ni,r]
  elseif {ni, nj} = {n1, n2} /\ r = N(avail) then
    98
  elseif {ni, nj} = {n2, n4} /\ r = N(avail) then
    99
  elseif {ni, nj} = {n1, n4} /\ r = N(avail) then
    98
  elseif {ni, nj} = {n2, n3} /\ r = N(avail) then
    98
  elseif {ni, nj} = {n1, n3} /\ r = N(avail) then
    98
  elseif {ni, nj} = {n3, n4} /\ r = N(avail) then
    99
  else
    worstBounds[r]
  endif | ni in Nodes0, nj in Nodes0, r in Res]);

imp = array2d(Comps, Flavs, [
  1, 3, 9,
  2, 6, 9,
  1, 3, 6,
  2, 6, 7,
  1, 3, 6,
  6, 7, 8,
]);

